n_res = 5;
n_events = 22;
n_prec = 71;
source = 1;
sink = 22;
min_lvl = [0, -9, -8, -3, 0];
max_lvl = [6, -1, 2, 1, 8];
rr = [| 0, -1, 1, 1, 0, 0, 0, 2, -2, -1, 2, 0, -1, -2, 2, 2, 0, 0, 0, 0, 0, 0
      | 0, -1, 0, 0, 0, -1, -2, -1, -2, 2, -2, 1, -1, 0, -1, 0, 0, 0, 0, 1, 1, 0
      | 0, -1, 0, 2, 2, -1, -2, -1, 1, -2, 1, -2, 0, -1, -1, -1, -2, 2, 0, 0, -2, 0
      | 0, 0, 0, 0, 0, -1, 0, -1, 1, 0, -2, 0, 1, -1, -1, 0, 1, 1, 0, 0, 0, 0
      | 0, -1, 2, 0, 0, 0, 0, 1, 2, 1, -2, 2, 0, 1, 2, 0, 0, 0, 0, -2, 0, 0 |];
prec = [| 1, 0, 2
        | 1, 0, 3
        | 1, 0, 4
        | 2, 16, 6
        | 2, 6, 21
        | 2, 20, 8
        | 2, 6, 16
        | 3, 2, 7
        | 3, 0, 21
        | 3, 3, 20
        | 3, 2, 11
        | 3, 1, 14
        | 4, 0, 18
        | 4, 5, 19
        | 4, 2, 11
        | 5, -58, 6
        | 5, -76, 2
        | 5, 11, 9
        | 5, 5, 19
        | 5, -69, 8
        | 6, 23, 5
        | 6, 7, 7
        | 6, 1, 10
        | 6, 16, 15
        | 7, -53, 13
        | 7, 4, 21
        | 7, -41, 9
        | 7, 2, 14
        | 8, -47, 4
        | 8, -37, 2
        | 8, -47, 18
        | 8, 13, 10
        | 8, -6, 15
        | 8, 15, 5
        | 9, 5, 17
        | 9, 23, 13
        | 9, 14, 20
        | 9, 1, 12
        | 10, 11, 12
        | 10, 4, 17
        | 10, 18, 13
        | 11, 2, 21
        | 11, 3, 16
        | 12, 0, 19
        | 12, 1, 20
        | 12, 1, 14
        | 13, -42, 9
        | 13, 1, 7
        | 14, -5, 19
        | 14, -9, 12
        | 14, 21, 20
        | 15, 9, 12
        | 15, 0, 17
        | 16, 22, 15
        | 17, -33, 16
        | 17, 0, 20
        | 17, -23, 15
        | 17, 3, 19
        | 18, -49, 4
        | 18, 0, 6
        | 18, 0, 8
        | 18, -1, 16
        | 19, 7, 22
        | 19, -7, 14
        | 20, -35, 12
        | 20, 3, 22
        | 21, -43, 3
        | 21, -49, 10
        | 21, -51, 7
        | 21, -34, 11
        | 21, 3, 22 |];
